n=15;
m=102;
k=6;
initial_edges=[
(1, 12),
(1, 4),
(1, 7),
(1, 2),
(1, 9),
(1, 14),
(1, 15),
(1, 3),
(1, 5),
(1, 10),
(1, 13),
(1, 8),
(1, 11),
(1, 6),
(2, 9),
(2, 8),
(2, 11),
(2, 14),
(2, 12),
(2, 3),
(2, 10),
(2, 4),
(2, 15),
(2, 5),
(2, 13),
(2, 6),
(2, 7),
(3, 13),
(3, 11),
(3, 15),
(3, 5),
(3, 14),
(3, 10),
(3, 12),
(3, 9),
(3, 8),
(3, 7),
(4, 9),
(4, 13),
(4, 8),
(4, 6),
(4, 5),
(4, 15),
(4, 12),
(4, 10),
(4, 14),
(4, 11),
(4, 7),
(5, 10),
(5, 12),
(5, 15),
(5, 7),
(5, 13),
(5, 9),
(5, 6),
(5, 14),
(5, 11),
(5, 8),
(6, 11),
(6, 7),
(6, 10),
(6, 13),
(6, 14),
(6, 15),
(6, 8),
(6, 9),
(7, 14),
(7, 15),
(7, 13),
(7, 10),
(7, 12),
(7, 11),
(7, 8),
(7, 9),
(8, 15),
(8, 9),
(8, 14),
(8, 10),
(8, 13),
(8, 12),
(8, 11),
(9, 14),
(9, 10),
(9, 13),
(9, 12),
(9, 15),
(9, 11),
(10, 11),
(10, 13),
(10, 12),
(10, 15),
(10, 14),
(11, 12),
(11, 13),
(11, 15),
(11, 14),
(12, 15),
(12, 14),
(12, 13),
(13, 14),
(13, 15),
(14, 15),
];